Poscar file generated with python code VASP_job
1.0
3.9500000 0.0000000 0.0000000
0.0000000 3.9500000 0.0000000
0.0000000 0.0000000 3.9500000
Ga N Mn 
1 1 3 
Cartesian
0.0000000 0.0000000 0.0000000
0.0000000 1.9750000 1.9750000
1.9750000 0.0000000 1.9750000
1.9750000 1.9750000 0.0000000
1.9750000 1.9750000 1.9750000
