Poscar file generated with python code pyVASP
1.0
2.7900000 0.0000000 0.0000000
0.0000000 2.7900000 0.0000000
0.0000000 0.0000000 2.7900000
Fe 
2 
Cartesian
1.3950000 1.3950000 1.3950000
0.0000000 0.0000000 0.0000000
