KPOINTS created by VASP_job python class
0
Monkhorst_Pack
6 12 12
0 0 0
