KPOINTS created by pyVASP python class
0
Monkhorst_Pack
6 12 12
0 0 0
