Poscar file generated with python code pyVASP
1.0
5.5800000 0.0000000 0.0000000
0.0000000 2.7900000 0.0000000
0.0000000 0.0000000 2.7900000
Fe 
4 
Cartesian
0.0000000 0.0000000 0.0000000
1.3950000 1.3950000 1.3950000
2.7900000 0.0000000 0.0000000
4.1850000 1.3950000 1.3950000
