KPOINTS created by VASP_job python class
0
Monkhorst_Pack
10 10 10
0 0 0
