KPOINTS created by pyVASP python class
0
Monkhorst_Pack
2 2 2
0 0 0
