Poscar file generated with python code pyVASP
1.0
16.7400000 0.0000000 0.0000000
0.0000000 16.7400000 0.0000000
0.0000000 0.0000000 16.7400000
Fe 
432 
Cartesian
0.0000000 0.0000000 0.0000000
0.0000000 0.0000000 2.7900000
0.0000000 0.0000000 5.5800000
0.0000000 0.0000000 8.3700000
0.0000000 0.0000000 11.1600000
0.0000000 0.0000000 13.9500000
0.0000000 2.7900000 0.0000000
0.0000000 2.7900000 2.7900000
0.0000000 2.7900000 5.5800000
0.0000000 2.7900000 8.3700000
0.0000000 2.7900000 11.1600000
0.0000000 2.7900000 13.9500000
0.0000000 5.5800000 0.0000000
0.0000000 5.5800000 2.7900000
0.0000000 5.5800000 5.5800000
0.0000000 5.5800000 8.3700000
0.0000000 5.5800000 11.1600000
0.0000000 5.5800000 13.9500000
0.0000000 8.3700000 0.0000000
0.0000000 8.3700000 2.7900000
0.0000000 8.3700000 5.5800000
0.0000000 8.3700000 8.3700000
0.0000000 8.3700000 11.1600000
0.0000000 8.3700000 13.9500000
0.0000000 11.1600000 0.0000000
0.0000000 11.1600000 2.7900000
0.0000000 11.1600000 5.5800000
0.0000000 11.1600000 8.3700000
0.0000000 11.1600000 11.1600000
0.0000000 11.1600000 13.9500000
0.0000000 13.9500000 0.0000000
0.0000000 13.9500000 2.7900000
0.0000000 13.9500000 5.5800000
0.0000000 13.9500000 8.3700000
0.0000000 13.9500000 11.1600000
0.0000000 13.9500000 13.9500000
1.3950000 1.3950000 1.3950000
1.3950000 1.3950000 4.1850000
1.3950000 1.3950000 6.9750000
1.3950000 1.3950000 9.7650000
1.3950000 1.3950000 12.5550000
1.3950000 1.3950000 15.3450000
1.3950000 4.1850000 1.3950000
1.3950000 4.1850000 4.1850000
1.3950000 4.1850000 6.9750000
1.3950000 4.1850000 9.7650000
1.3950000 4.1850000 12.5550000
1.3950000 4.1850000 15.3450000
1.3950000 6.9750000 1.3950000
1.3950000 6.9750000 4.1850000
1.3950000 6.9750000 6.9750000
1.3950000 6.9750000 9.7650000
1.3950000 6.9750000 12.5550000
1.3950000 6.9750000 15.3450000
1.3950000 9.7650000 1.3950000
1.3950000 9.7650000 4.1850000
1.3950000 9.7650000 6.9750000
1.3950000 9.7650000 9.7650000
1.3950000 9.7650000 12.5550000
1.3950000 9.7650000 15.3450000
1.3950000 12.5550000 1.3950000
1.3950000 12.5550000 4.1850000
1.3950000 12.5550000 6.9750000
1.3950000 12.5550000 9.7650000
1.3950000 12.5550000 12.5550000
1.3950000 12.5550000 15.3450000
1.3950000 15.3450000 1.3950000
1.3950000 15.3450000 4.1850000
1.3950000 15.3450000 6.9750000
1.3950000 15.3450000 9.7650000
1.3950000 15.3450000 12.5550000
1.3950000 15.3450000 15.3450000
2.7900000 0.0000000 0.0000000
2.7900000 0.0000000 2.7900000
2.7900000 0.0000000 5.5800000
2.7900000 0.0000000 8.3700000
2.7900000 0.0000000 11.1600000
2.7900000 0.0000000 13.9500000
2.7900000 2.7900000 0.0000000
2.7900000 2.7900000 2.7900000
2.7900000 2.7900000 5.5800000
2.7900000 2.7900000 8.3700000
2.7900000 2.7900000 11.1600000
2.7900000 2.7900000 13.9500000
2.7900000 5.5800000 0.0000000
2.7900000 5.5800000 2.7900000
2.7900000 5.5800000 5.5800000
2.7900000 5.5800000 8.3700000
2.7900000 5.5800000 11.1600000
2.7900000 5.5800000 13.9500000
2.7900000 8.3700000 0.0000000
2.7900000 8.3700000 2.7900000
2.7900000 8.3700000 5.5800000
2.7900000 8.3700000 8.3700000
2.7900000 8.3700000 11.1600000
2.7900000 8.3700000 13.9500000
2.7900000 11.1600000 0.0000000
2.7900000 11.1600000 2.7900000
2.7900000 11.1600000 5.5800000
2.7900000 11.1600000 8.3700000
2.7900000 11.1600000 11.1600000
2.7900000 11.1600000 13.9500000
2.7900000 13.9500000 0.0000000
2.7900000 13.9500000 2.7900000
2.7900000 13.9500000 5.5800000
2.7900000 13.9500000 8.3700000
2.7900000 13.9500000 11.1600000
2.7900000 13.9500000 13.9500000
4.1850000 1.3950000 1.3950000
4.1850000 1.3950000 4.1850000
4.1850000 1.3950000 6.9750000
4.1850000 1.3950000 9.7650000
4.1850000 1.3950000 12.5550000
4.1850000 1.3950000 15.3450000
4.1850000 4.1850000 1.3950000
4.1850000 4.1850000 4.1850000
4.1850000 4.1850000 6.9750000
4.1850000 4.1850000 9.7650000
4.1850000 4.1850000 12.5550000
4.1850000 4.1850000 15.3450000
4.1850000 6.9750000 1.3950000
4.1850000 6.9750000 4.1850000
4.1850000 6.9750000 6.9750000
4.1850000 6.9750000 9.7650000
4.1850000 6.9750000 12.5550000
4.1850000 6.9750000 15.3450000
4.1850000 9.7650000 1.3950000
4.1850000 9.7650000 4.1850000
4.1850000 9.7650000 6.9750000
4.1850000 9.7650000 9.7650000
4.1850000 9.7650000 12.5550000
4.1850000 9.7650000 15.3450000
4.1850000 12.5550000 1.3950000
4.1850000 12.5550000 4.1850000
4.1850000 12.5550000 6.9750000
4.1850000 12.5550000 9.7650000
4.1850000 12.5550000 12.5550000
4.1850000 12.5550000 15.3450000
4.1850000 15.3450000 1.3950000
4.1850000 15.3450000 4.1850000
4.1850000 15.3450000 6.9750000
4.1850000 15.3450000 9.7650000
4.1850000 15.3450000 12.5550000
4.1850000 15.3450000 15.3450000
5.5800000 0.0000000 0.0000000
5.5800000 0.0000000 2.7900000
5.5800000 0.0000000 5.5800000
5.5800000 0.0000000 8.3700000
5.5800000 0.0000000 11.1600000
5.5800000 0.0000000 13.9500000
5.5800000 2.7900000 0.0000000
5.5800000 2.7900000 2.7900000
5.5800000 2.7900000 5.5800000
5.5800000 2.7900000 8.3700000
5.5800000 2.7900000 11.1600000
5.5800000 2.7900000 13.9500000
5.5800000 5.5800000 0.0000000
5.5800000 5.5800000 2.7900000
5.5800000 5.5800000 5.5800000
5.5800000 5.5800000 8.3700000
5.5800000 5.5800000 11.1600000
5.5800000 5.5800000 13.9500000
5.5800000 8.3700000 0.0000000
5.5800000 8.3700000 2.7900000
5.5800000 8.3700000 5.5800000
5.5800000 8.3700000 8.3700000
5.5800000 8.3700000 11.1600000
5.5800000 8.3700000 13.9500000
5.5800000 11.1600000 0.0000000
5.5800000 11.1600000 2.7900000
5.5800000 11.1600000 5.5800000
5.5800000 11.1600000 8.3700000
5.5800000 11.1600000 11.1600000
5.5800000 11.1600000 13.9500000
5.5800000 13.9500000 0.0000000
5.5800000 13.9500000 2.7900000
5.5800000 13.9500000 5.5800000
5.5800000 13.9500000 8.3700000
5.5800000 13.9500000 11.1600000
5.5800000 13.9500000 13.9500000
6.9750000 1.3950000 1.3950000
6.9750000 1.3950000 4.1850000
6.9750000 1.3950000 6.9750000
6.9750000 1.3950000 9.7650000
6.9750000 1.3950000 12.5550000
6.9750000 1.3950000 15.3450000
6.9750000 4.1850000 1.3950000
6.9750000 4.1850000 4.1850000
6.9750000 4.1850000 6.9750000
6.9750000 4.1850000 9.7650000
6.9750000 4.1850000 12.5550000
6.9750000 4.1850000 15.3450000
6.9750000 6.9750000 1.3950000
6.9750000 6.9750000 4.1850000
6.9750000 6.9750000 6.9750000
6.9750000 6.9750000 9.7650000
6.9750000 6.9750000 12.5550000
6.9750000 6.9750000 15.3450000
6.9750000 9.7650000 1.3950000
6.9750000 9.7650000 4.1850000
6.9750000 9.7650000 6.9750000
6.9750000 9.7650000 9.7650000
6.9750000 9.7650000 12.5550000
6.9750000 9.7650000 15.3450000
6.9750000 12.5550000 1.3950000
6.9750000 12.5550000 4.1850000
6.9750000 12.5550000 6.9750000
6.9750000 12.5550000 9.7650000
6.9750000 12.5550000 12.5550000
6.9750000 12.5550000 15.3450000
6.9750000 15.3450000 1.3950000
6.9750000 15.3450000 4.1850000
6.9750000 15.3450000 6.9750000
6.9750000 15.3450000 9.7650000
6.9750000 15.3450000 12.5550000
6.9750000 15.3450000 15.3450000
8.3700000 0.0000000 0.0000000
8.3700000 0.0000000 2.7900000
8.3700000 0.0000000 5.5800000
8.3700000 0.0000000 8.3700000
8.3700000 0.0000000 11.1600000
8.3700000 0.0000000 13.9500000
8.3700000 2.7900000 0.0000000
8.3700000 2.7900000 2.7900000
8.3700000 2.7900000 5.5800000
8.3700000 2.7900000 8.3700000
8.3700000 2.7900000 11.1600000
8.3700000 2.7900000 13.9500000
8.3700000 5.5800000 0.0000000
8.3700000 5.5800000 2.7900000
8.3700000 5.5800000 5.5800000
8.3700000 5.5800000 8.3700000
8.3700000 5.5800000 11.1600000
8.3700000 5.5800000 13.9500000
8.3700000 8.3700000 0.0000000
8.3700000 8.3700000 2.7900000
8.3700000 8.3700000 5.5800000
8.3700000 8.3700000 8.3700000
8.3700000 8.3700000 11.1600000
8.3700000 8.3700000 13.9500000
8.3700000 11.1600000 0.0000000
8.3700000 11.1600000 2.7900000
8.3700000 11.1600000 5.5800000
8.3700000 11.1600000 8.3700000
8.3700000 11.1600000 11.1600000
8.3700000 11.1600000 13.9500000
8.3700000 13.9500000 0.0000000
8.3700000 13.9500000 2.7900000
8.3700000 13.9500000 5.5800000
8.3700000 13.9500000 8.3700000
8.3700000 13.9500000 11.1600000
8.3700000 13.9500000 13.9500000
9.7650000 1.3950000 1.3950000
9.7650000 1.3950000 4.1850000
9.7650000 1.3950000 6.9750000
9.7650000 1.3950000 9.7650000
9.7650000 1.3950000 12.5550000
9.7650000 1.3950000 15.3450000
9.7650000 4.1850000 1.3950000
9.7650000 4.1850000 4.1850000
9.7650000 4.1850000 6.9750000
9.7650000 4.1850000 9.7650000
9.7650000 4.1850000 12.5550000
9.7650000 4.1850000 15.3450000
9.7650000 6.9750000 1.3950000
9.7650000 6.9750000 4.1850000
9.7650000 6.9750000 6.9750000
9.7650000 6.9750000 9.7650000
9.7650000 6.9750000 12.5550000
9.7650000 6.9750000 15.3450000
9.7650000 9.7650000 1.3950000
9.7650000 9.7650000 4.1850000
9.7650000 9.7650000 6.9750000
9.7650000 9.7650000 9.7650000
9.7650000 9.7650000 12.5550000
9.7650000 9.7650000 15.3450000
9.7650000 12.5550000 1.3950000
9.7650000 12.5550000 4.1850000
9.7650000 12.5550000 6.9750000
9.7650000 12.5550000 9.7650000
9.7650000 12.5550000 12.5550000
9.7650000 12.5550000 15.3450000
9.7650000 15.3450000 1.3950000
9.7650000 15.3450000 4.1850000
9.7650000 15.3450000 6.9750000
9.7650000 15.3450000 9.7650000
9.7650000 15.3450000 12.5550000
9.7650000 15.3450000 15.3450000
11.1600000 0.0000000 0.0000000
11.1600000 0.0000000 2.7900000
11.1600000 0.0000000 5.5800000
11.1600000 0.0000000 8.3700000
11.1600000 0.0000000 11.1600000
11.1600000 0.0000000 13.9500000
11.1600000 2.7900000 0.0000000
11.1600000 2.7900000 2.7900000
11.1600000 2.7900000 5.5800000
11.1600000 2.7900000 8.3700000
11.1600000 2.7900000 11.1600000
11.1600000 2.7900000 13.9500000
11.1600000 5.5800000 0.0000000
11.1600000 5.5800000 2.7900000
11.1600000 5.5800000 5.5800000
11.1600000 5.5800000 8.3700000
11.1600000 5.5800000 11.1600000
11.1600000 5.5800000 13.9500000
11.1600000 8.3700000 0.0000000
11.1600000 8.3700000 2.7900000
11.1600000 8.3700000 5.5800000
11.1600000 8.3700000 8.3700000
11.1600000 8.3700000 11.1600000
11.1600000 8.3700000 13.9500000
11.1600000 11.1600000 0.0000000
11.1600000 11.1600000 2.7900000
11.1600000 11.1600000 5.5800000
11.1600000 11.1600000 8.3700000
11.1600000 11.1600000 11.1600000
11.1600000 11.1600000 13.9500000
11.1600000 13.9500000 0.0000000
11.1600000 13.9500000 2.7900000
11.1600000 13.9500000 5.5800000
11.1600000 13.9500000 8.3700000
11.1600000 13.9500000 11.1600000
11.1600000 13.9500000 13.9500000
12.5550000 1.3950000 1.3950000
12.5550000 1.3950000 4.1850000
12.5550000 1.3950000 6.9750000
12.5550000 1.3950000 9.7650000
12.5550000 1.3950000 12.5550000
12.5550000 1.3950000 15.3450000
12.5550000 4.1850000 1.3950000
12.5550000 4.1850000 4.1850000
12.5550000 4.1850000 6.9750000
12.5550000 4.1850000 9.7650000
12.5550000 4.1850000 12.5550000
12.5550000 4.1850000 15.3450000
12.5550000 6.9750000 1.3950000
12.5550000 6.9750000 4.1850000
12.5550000 6.9750000 6.9750000
12.5550000 6.9750000 9.7650000
12.5550000 6.9750000 12.5550000
12.5550000 6.9750000 15.3450000
12.5550000 9.7650000 1.3950000
12.5550000 9.7650000 4.1850000
12.5550000 9.7650000 6.9750000
12.5550000 9.7650000 9.7650000
12.5550000 9.7650000 12.5550000
12.5550000 9.7650000 15.3450000
12.5550000 12.5550000 1.3950000
12.5550000 12.5550000 4.1850000
12.5550000 12.5550000 6.9750000
12.5550000 12.5550000 9.7650000
12.5550000 12.5550000 12.5550000
12.5550000 12.5550000 15.3450000
12.5550000 15.3450000 1.3950000
12.5550000 15.3450000 4.1850000
12.5550000 15.3450000 6.9750000
12.5550000 15.3450000 9.7650000
12.5550000 15.3450000 12.5550000
12.5550000 15.3450000 15.3450000
13.9500000 0.0000000 0.0000000
13.9500000 0.0000000 2.7900000
13.9500000 0.0000000 5.5800000
13.9500000 0.0000000 8.3700000
13.9500000 0.0000000 11.1600000
13.9500000 0.0000000 13.9500000
13.9500000 2.7900000 0.0000000
13.9500000 2.7900000 2.7900000
13.9500000 2.7900000 5.5800000
13.9500000 2.7900000 8.3700000
13.9500000 2.7900000 11.1600000
13.9500000 2.7900000 13.9500000
13.9500000 5.5800000 0.0000000
13.9500000 5.5800000 2.7900000
13.9500000 5.5800000 5.5800000
13.9500000 5.5800000 8.3700000
13.9500000 5.5800000 11.1600000
13.9500000 5.5800000 13.9500000
13.9500000 8.3700000 0.0000000
13.9500000 8.3700000 2.7900000
13.9500000 8.3700000 5.5800000
13.9500000 8.3700000 8.3700000
13.9500000 8.3700000 11.1600000
13.9500000 8.3700000 13.9500000
13.9500000 11.1600000 0.0000000
13.9500000 11.1600000 2.7900000
13.9500000 11.1600000 5.5800000
13.9500000 11.1600000 8.3700000
13.9500000 11.1600000 11.1600000
13.9500000 11.1600000 13.9500000
13.9500000 13.9500000 0.0000000
13.9500000 13.9500000 2.7900000
13.9500000 13.9500000 5.5800000
13.9500000 13.9500000 8.3700000
13.9500000 13.9500000 11.1600000
13.9500000 13.9500000 13.9500000
15.3450000 1.3950000 1.3950000
15.3450000 1.3950000 4.1850000
15.3450000 1.3950000 6.9750000
15.3450000 1.3950000 9.7650000
15.3450000 1.3950000 12.5550000
15.3450000 1.3950000 15.3450000
15.3450000 4.1850000 1.3950000
15.3450000 4.1850000 4.1850000
15.3450000 4.1850000 6.9750000
15.3450000 4.1850000 9.7650000
15.3450000 4.1850000 12.5550000
15.3450000 4.1850000 15.3450000
15.3450000 6.9750000 1.3950000
15.3450000 6.9750000 4.1850000
15.3450000 6.9750000 6.9750000
15.3450000 6.9750000 9.7650000
15.3450000 6.9750000 12.5550000
15.3450000 6.9750000 15.3450000
15.3450000 9.7650000 1.3950000
15.3450000 9.7650000 4.1850000
15.3450000 9.7650000 6.9750000
15.3450000 9.7650000 9.7650000
15.3450000 9.7650000 12.5550000
15.3450000 9.7650000 15.3450000
15.3450000 12.5550000 1.3950000
15.3450000 12.5550000 4.1850000
15.3450000 12.5550000 6.9750000
15.3450000 12.5550000 9.7650000
15.3450000 12.5550000 12.5550000
15.3450000 12.5550000 15.3450000
15.3450000 15.3450000 1.3950000
15.3450000 15.3450000 4.1850000
15.3450000 15.3450000 6.9750000
15.3450000 15.3450000 9.7650000
15.3450000 15.3450000 12.5550000
15.3450000 15.3450000 15.3450000
