Poscar file generated with python code pyVASP
1.0
4.9400000 0.0000000 0.0000000
-2.4700000 4.2781655 0.0000000
0.0000000 0.0000000 3.4930000
Co Gd 
5 1 
Cartesian
-1.2350000 2.1390827 1.7465000
0.0000000 2.8521103 0.0000000
1.2350000 2.1390827 1.7465000
2.4700000 0.0000000 1.7465000
2.4700000 1.4260552 0.0000000
0.0000000 0.0000000 0.0000000
