Poscar file generated with python code pyVASP
1.0
4.9400000 0.0000000 0.0000000
0.0000000 4.9400000 0.0000000
0.0000000 0.0000000 3.4930000
Co Gd 
5 1 
Cartesian
0.0000000 2.4700000 1.7465000
1.6466667 3.2933333 0.0000000
2.4700000 0.0000000 1.7465000
2.4700000 2.4700000 1.7465000
3.2933333 1.6466667 0.0000000
0.0000000 0.0000000 0.0000000
