Poscar file generated with python code pyVASP
1.0
7.9000000 0.0000000 0.0000000
0.0000000 7.9000000 0.0000000
0.0000000 0.0000000 7.9000000
Ga Mn N 
8 24 8 
Cartesian
0.0000000 0.0000000 0.0000000
0.0000000 0.0000000 3.9500000
0.0000000 3.9500000 0.0000000
0.0000000 3.9500000 3.9500000
3.9500000 0.0000000 0.0000000
3.9500000 0.0000000 3.9500000
3.9500000 3.9500000 0.0000000
3.9500000 3.9500000 3.9500000
1.9750000 1.9750000 0.0000000
1.9750000 1.9750000 3.9500000
1.9750000 5.9250000 0.0000000
1.9750000 5.9250000 3.9500000
5.9250000 1.9750000 0.0000000
5.9250000 1.9750000 3.9500000
5.9250000 5.9250000 0.0000000
5.9250000 5.9250000 3.9500000
1.9750000 0.0000000 1.9750000
1.9750000 0.0000000 5.9250000
1.9750000 3.9500000 1.9750000
1.9750000 3.9500000 5.9250000
5.9250000 0.0000000 1.9750000
5.9250000 0.0000000 5.9250000
5.9250000 3.9500000 1.9750000
5.9250000 3.9500000 5.9250000
0.0000000 1.9750000 1.9750000
0.0000000 1.9750000 5.9250000
0.0000000 5.9250000 1.9750000
0.0000000 5.9250000 5.9250000
3.9500000 1.9750000 1.9750000
3.9500000 1.9750000 5.9250000
3.9500000 5.9250000 1.9750000
3.9500000 5.9250000 5.9250000
1.9750000 1.9750000 1.9750000
1.9750000 1.9750000 5.9250000
1.9750000 5.9250000 1.9750000
1.9750000 5.9250000 5.9250000
5.9250000 1.9750000 1.9750000
5.9250000 1.9750000 5.9250000
5.9250000 5.9250000 1.9750000
5.9250000 5.9250000 5.9250000
