KPOINTS created by VASP_job python class
0
Monkhorst_Pack
1 1 1
0 0 0
