KPOINTS created by pyVASP python class
0
Monkhorst_Pack
1 1 1
0 0 0
