Poscar file generated with python code pyVASP
1.0
15.8000000 0.0000000 0.0000000
0.0000000 15.8000000 0.0000000
0.0000000 0.0000000 15.8000000
Mn N Ni 
192 64 64 
Cartesian
1.9750000 1.9750000 0.0000000
1.9750000 1.9750000 3.9500000
1.9750000 1.9750000 7.9000000
1.9750000 1.9750000 11.8500000
1.9750000 5.9250000 0.0000000
1.9750000 5.9250000 3.9500000
1.9750000 5.9250000 7.9000000
1.9750000 5.9250000 11.8500000
1.9750000 9.8750000 0.0000000
1.9750000 9.8750000 3.9500000
1.9750000 9.8750000 7.9000000
1.9750000 9.8750000 11.8500000
1.9750000 13.8250000 0.0000000
1.9750000 13.8250000 3.9500000
1.9750000 13.8250000 7.9000000
1.9750000 13.8250000 11.8500000
5.9250000 1.9750000 0.0000000
5.9250000 1.9750000 3.9500000
5.9250000 1.9750000 7.9000000
5.9250000 1.9750000 11.8500000
5.9250000 5.9250000 0.0000000
5.9250000 5.9250000 3.9500000
5.9250000 5.9250000 7.9000000
5.9250000 5.9250000 11.8500000
5.9250000 9.8750000 0.0000000
5.9250000 9.8750000 3.9500000
5.9250000 9.8750000 7.9000000
5.9250000 9.8750000 11.8500000
5.9250000 13.8250000 0.0000000
5.9250000 13.8250000 3.9500000
5.9250000 13.8250000 7.9000000
5.9250000 13.8250000 11.8500000
9.8750000 1.9750000 0.0000000
9.8750000 1.9750000 3.9500000
9.8750000 1.9750000 7.9000000
9.8750000 1.9750000 11.8500000
9.8750000 5.9250000 0.0000000
9.8750000 5.9250000 3.9500000
9.8750000 5.9250000 7.9000000
9.8750000 5.9250000 11.8500000
9.8750000 9.8750000 0.0000000
9.8750000 9.8750000 3.9500000
9.8750000 9.8750000 7.9000000
9.8750000 9.8750000 11.8500000
9.8750000 13.8250000 0.0000000
9.8750000 13.8250000 3.9500000
9.8750000 13.8250000 7.9000000
9.8750000 13.8250000 11.8500000
13.8250000 1.9750000 0.0000000
13.8250000 1.9750000 3.9500000
13.8250000 1.9750000 7.9000000
13.8250000 1.9750000 11.8500000
13.8250000 5.9250000 0.0000000
13.8250000 5.9250000 3.9500000
13.8250000 5.9250000 7.9000000
13.8250000 5.9250000 11.8500000
13.8250000 9.8750000 0.0000000
13.8250000 9.8750000 3.9500000
13.8250000 9.8750000 7.9000000
13.8250000 9.8750000 11.8500000
13.8250000 13.8250000 0.0000000
13.8250000 13.8250000 3.9500000
13.8250000 13.8250000 7.9000000
13.8250000 13.8250000 11.8500000
1.9750000 0.0000000 1.9750000
1.9750000 0.0000000 5.9250000
1.9750000 0.0000000 9.8750000
1.9750000 0.0000000 13.8250000
1.9750000 3.9500000 1.9750000
1.9750000 3.9500000 5.9250000
1.9750000 3.9500000 9.8750000
1.9750000 3.9500000 13.8250000
1.9750000 7.9000000 1.9750000
1.9750000 7.9000000 5.9250000
1.9750000 7.9000000 9.8750000
1.9750000 7.9000000 13.8250000
1.9750000 11.8500000 1.9750000
1.9750000 11.8500000 5.9250000
1.9750000 11.8500000 9.8750000
1.9750000 11.8500000 13.8250000
5.9250000 0.0000000 1.9750000
5.9250000 0.0000000 5.9250000
5.9250000 0.0000000 9.8750000
5.9250000 0.0000000 13.8250000
5.9250000 3.9500000 1.9750000
5.9250000 3.9500000 5.9250000
5.9250000 3.9500000 9.8750000
5.9250000 3.9500000 13.8250000
5.9250000 7.9000000 1.9750000
5.9250000 7.9000000 5.9250000
5.9250000 7.9000000 9.8750000
5.9250000 7.9000000 13.8250000
5.9250000 11.8500000 1.9750000
5.9250000 11.8500000 5.9250000
5.9250000 11.8500000 9.8750000
5.9250000 11.8500000 13.8250000
9.8750000 0.0000000 1.9750000
9.8750000 0.0000000 5.9250000
9.8750000 0.0000000 9.8750000
9.8750000 0.0000000 13.8250000
9.8750000 3.9500000 1.9750000
9.8750000 3.9500000 5.9250000
9.8750000 3.9500000 9.8750000
9.8750000 3.9500000 13.8250000
9.8750000 7.9000000 1.9750000
9.8750000 7.9000000 5.9250000
9.8750000 7.9000000 9.8750000
9.8750000 7.9000000 13.8250000
9.8750000 11.8500000 1.9750000
9.8750000 11.8500000 5.9250000
9.8750000 11.8500000 9.8750000
9.8750000 11.8500000 13.8250000
13.8250000 0.0000000 1.9750000
13.8250000 0.0000000 5.9250000
13.8250000 0.0000000 9.8750000
13.8250000 0.0000000 13.8250000
13.8250000 3.9500000 1.9750000
13.8250000 3.9500000 5.9250000
13.8250000 3.9500000 9.8750000
13.8250000 3.9500000 13.8250000
13.8250000 7.9000000 1.9750000
13.8250000 7.9000000 5.9250000
13.8250000 7.9000000 9.8750000
13.8250000 7.9000000 13.8250000
13.8250000 11.8500000 1.9750000
13.8250000 11.8500000 5.9250000
13.8250000 11.8500000 9.8750000
13.8250000 11.8500000 13.8250000
0.0000000 1.9750000 1.9750000
0.0000000 1.9750000 5.9250000
0.0000000 1.9750000 9.8750000
0.0000000 1.9750000 13.8250000
0.0000000 5.9250000 1.9750000
0.0000000 5.9250000 5.9250000
0.0000000 5.9250000 9.8750000
0.0000000 5.9250000 13.8250000
0.0000000 9.8750000 1.9750000
0.0000000 9.8750000 5.9250000
0.0000000 9.8750000 9.8750000
0.0000000 9.8750000 13.8250000
0.0000000 13.8250000 1.9750000
0.0000000 13.8250000 5.9250000
0.0000000 13.8250000 9.8750000
0.0000000 13.8250000 13.8250000
3.9500000 1.9750000 1.9750000
3.9500000 1.9750000 5.9250000
3.9500000 1.9750000 9.8750000
3.9500000 1.9750000 13.8250000
3.9500000 5.9250000 1.9750000
3.9500000 5.9250000 5.9250000
3.9500000 5.9250000 9.8750000
3.9500000 5.9250000 13.8250000
3.9500000 9.8750000 1.9750000
3.9500000 9.8750000 5.9250000
3.9500000 9.8750000 9.8750000
3.9500000 9.8750000 13.8250000
3.9500000 13.8250000 1.9750000
3.9500000 13.8250000 5.9250000
3.9500000 13.8250000 9.8750000
3.9500000 13.8250000 13.8250000
7.9000000 1.9750000 1.9750000
7.9000000 1.9750000 5.9250000
7.9000000 1.9750000 9.8750000
7.9000000 1.9750000 13.8250000
7.9000000 5.9250000 1.9750000
7.9000000 5.9250000 5.9250000
7.9000000 5.9250000 9.8750000
7.9000000 5.9250000 13.8250000
7.9000000 9.8750000 1.9750000
7.9000000 9.8750000 5.9250000
7.9000000 9.8750000 9.8750000
7.9000000 9.8750000 13.8250000
7.9000000 13.8250000 1.9750000
7.9000000 13.8250000 5.9250000
7.9000000 13.8250000 9.8750000
7.9000000 13.8250000 13.8250000
11.8500000 1.9750000 1.9750000
11.8500000 1.9750000 5.9250000
11.8500000 1.9750000 9.8750000
11.8500000 1.9750000 13.8250000
11.8500000 5.9250000 1.9750000
11.8500000 5.9250000 5.9250000
11.8500000 5.9250000 9.8750000
11.8500000 5.9250000 13.8250000
11.8500000 9.8750000 1.9750000
11.8500000 9.8750000 5.9250000
11.8500000 9.8750000 9.8750000
11.8500000 9.8750000 13.8250000
11.8500000 13.8250000 1.9750000
11.8500000 13.8250000 5.9250000
11.8500000 13.8250000 9.8750000
11.8500000 13.8250000 13.8250000
1.9750000 1.9750000 1.9750000
1.9750000 1.9750000 5.9250000
1.9750000 1.9750000 9.8750000
1.9750000 1.9750000 13.8250000
1.9750000 5.9250000 1.9750000
1.9750000 5.9250000 5.9250000
1.9750000 5.9250000 9.8750000
1.9750000 5.9250000 13.8250000
1.9750000 9.8750000 1.9750000
1.9750000 9.8750000 5.9250000
1.9750000 9.8750000 9.8750000
1.9750000 9.8750000 13.8250000
1.9750000 13.8250000 1.9750000
1.9750000 13.8250000 5.9250000
1.9750000 13.8250000 9.8750000
1.9750000 13.8250000 13.8250000
5.9250000 1.9750000 1.9750000
5.9250000 1.9750000 5.9250000
5.9250000 1.9750000 9.8750000
5.9250000 1.9750000 13.8250000
5.9250000 5.9250000 1.9750000
5.9250000 5.9250000 5.9250000
5.9250000 5.9250000 9.8750000
5.9250000 5.9250000 13.8250000
5.9250000 9.8750000 1.9750000
5.9250000 9.8750000 5.9250000
5.9250000 9.8750000 9.8750000
5.9250000 9.8750000 13.8250000
5.9250000 13.8250000 1.9750000
5.9250000 13.8250000 5.9250000
5.9250000 13.8250000 9.8750000
5.9250000 13.8250000 13.8250000
9.8750000 1.9750000 1.9750000
9.8750000 1.9750000 5.9250000
9.8750000 1.9750000 9.8750000
9.8750000 1.9750000 13.8250000
9.8750000 5.9250000 1.9750000
9.8750000 5.9250000 5.9250000
9.8750000 5.9250000 9.8750000
9.8750000 5.9250000 13.8250000
9.8750000 9.8750000 1.9750000
9.8750000 9.8750000 5.9250000
9.8750000 9.8750000 9.8750000
9.8750000 9.8750000 13.8250000
9.8750000 13.8250000 1.9750000
9.8750000 13.8250000 5.9250000
9.8750000 13.8250000 9.8750000
9.8750000 13.8250000 13.8250000
13.8250000 1.9750000 1.9750000
13.8250000 1.9750000 5.9250000
13.8250000 1.9750000 9.8750000
13.8250000 1.9750000 13.8250000
13.8250000 5.9250000 1.9750000
13.8250000 5.9250000 5.9250000
13.8250000 5.9250000 9.8750000
13.8250000 5.9250000 13.8250000
13.8250000 9.8750000 1.9750000
13.8250000 9.8750000 5.9250000
13.8250000 9.8750000 9.8750000
13.8250000 9.8750000 13.8250000
13.8250000 13.8250000 1.9750000
13.8250000 13.8250000 5.9250000
13.8250000 13.8250000 9.8750000
13.8250000 13.8250000 13.8250000
0.0000000 0.0000000 0.0000000
0.0000000 0.0000000 3.9500000
0.0000000 0.0000000 7.9000000
0.0000000 0.0000000 11.8500000
0.0000000 3.9500000 0.0000000
0.0000000 3.9500000 3.9500000
0.0000000 3.9500000 7.9000000
0.0000000 3.9500000 11.8500000
0.0000000 7.9000000 0.0000000
0.0000000 7.9000000 3.9500000
0.0000000 7.9000000 7.9000000
0.0000000 7.9000000 11.8500000
0.0000000 11.8500000 0.0000000
0.0000000 11.8500000 3.9500000
0.0000000 11.8500000 7.9000000
0.0000000 11.8500000 11.8500000
3.9500000 0.0000000 0.0000000
3.9500000 0.0000000 3.9500000
3.9500000 0.0000000 7.9000000
3.9500000 0.0000000 11.8500000
3.9500000 3.9500000 0.0000000
3.9500000 3.9500000 3.9500000
3.9500000 3.9500000 7.9000000
3.9500000 3.9500000 11.8500000
3.9500000 7.9000000 0.0000000
3.9500000 7.9000000 3.9500000
3.9500000 7.9000000 7.9000000
3.9500000 7.9000000 11.8500000
3.9500000 11.8500000 0.0000000
3.9500000 11.8500000 3.9500000
3.9500000 11.8500000 7.9000000
3.9500000 11.8500000 11.8500000
7.9000000 0.0000000 0.0000000
7.9000000 0.0000000 3.9500000
7.9000000 0.0000000 7.9000000
7.9000000 0.0000000 11.8500000
7.9000000 3.9500000 0.0000000
7.9000000 3.9500000 3.9500000
7.9000000 3.9500000 7.9000000
7.9000000 3.9500000 11.8500000
7.9000000 7.9000000 0.0000000
7.9000000 7.9000000 3.9500000
7.9000000 7.9000000 7.9000000
7.9000000 7.9000000 11.8500000
7.9000000 11.8500000 0.0000000
7.9000000 11.8500000 3.9500000
7.9000000 11.8500000 7.9000000
7.9000000 11.8500000 11.8500000
11.8500000 0.0000000 0.0000000
11.8500000 0.0000000 3.9500000
11.8500000 0.0000000 7.9000000
11.8500000 0.0000000 11.8500000
11.8500000 3.9500000 0.0000000
11.8500000 3.9500000 3.9500000
11.8500000 3.9500000 7.9000000
11.8500000 3.9500000 11.8500000
11.8500000 7.9000000 0.0000000
11.8500000 7.9000000 3.9500000
11.8500000 7.9000000 7.9000000
11.8500000 7.9000000 11.8500000
11.8500000 11.8500000 0.0000000
11.8500000 11.8500000 3.9500000
11.8500000 11.8500000 7.9000000
11.8500000 11.8500000 11.8500000
