KPOINTS created by pyVASP python class
0
Monkhorst_Pack
12 12 12
0 0 0
