Poscar file generated with python code VASP_job
1.0
-1.3950000 1.3950000 1.3950000
1.3950000 -1.3950000 1.3950000
1.3950000 1.3950000 -1.3950000
Fe 
1 
Cartesian
0.0000000 0.0000000 0.0000000
